c A SAT instance generated from a 3-CNF formula that had 20 clauses and 10 variables
p cnf 10 20
4 -5 9 0
-10 -2 -3 0
-10 -5 6 0
2 1 -5 0
2 5 -7 0
-2 5 9 0
-5 8 2 0
-8 -2 5 0
-1 3 -9 0
9 1 3 0
8 -4 -9 0
-10 9 4 0
8 -5 -9 0
6 7 -9 0
5 10 -7 0
5 -2 -7 0
1 -2 -10 0
-6 -2 9 0
8 4 3 0
-1 -8 10 0
